
Gurobi 9.5.2 (mac64[arm]) logging started Mon May  1 17:53:31 2023

Set parameter LogFile to value "Java/output/special_mip/scenario_seed_2_nJob_40_machineCount_2/mip_increment_5/log.txt"
Gurobi Optimizer version 9.5.2 build v9.5.2rc0 (mac64[arm])
Thread count: 8 physical cores, 8 logical processors, using up to 8 threads
Optimize a model with 772 rows, 11328 columns and 46479 nonzeros
Model fingerprint: 0x610a8b2d
Variable types: 0 continuous, 11328 integer (11328 binary)
Coefficient statistics:
  Matrix range     [1e+00, 3e+02]
  Objective range  [2e+00, 7e+06]
  Bounds range     [1e+00, 1e+00]
  RHS range        [1e+00, 1e+00]
Found heuristic solution: objective 3.585505e+07
Presolve removed 8 rows and 1148 columns
Presolve time: 0.06s
Presolved: 764 rows, 10180 columns, 41388 nonzeros
Variable types: 0 continuous, 10180 integer (10172 binary)
Found heuristic solution: objective 2.641435e+07

Root relaxation: objective 1.923415e+04, 2928 iterations, 0.08 seconds (0.13 work units)

    Nodes    |    Current Node    |     Objective Bounds      |     Work
 Expl Unexpl |  Obj  Depth IntInf | Incumbent    BestBd   Gap | It/Node Time

     0     0 19234.1462    0  237 2.6414e+07 19234.1462   100%     -    0s
H    0     0                    1.486268e+07 19234.1462   100%     -    0s
H    0     0                    1.271409e+07 19234.1462   100%     -    0s
H    0     0                    1208155.0000 19542.6626  98.4%     -    0s
H    0     0                    1131420.0000 19542.6626  98.3%     -    0s
     0     0 19553.9952    0  337 1131420.00 19553.9952  98.3%     -    0s
H    0     0                    884016.00000 19553.9952  97.8%     -    0s
     0     0 19568.2199    0  339 884016.000 19568.2199  97.8%     -    0s
     0     0 19568.6031    0  340 884016.000 19568.6031  97.8%     -    0s
     0     0 19568.6031    0  341 884016.000 19568.6031  97.8%     -    0s
     0     0 19882.9653    0  328 884016.000 19882.9653  97.8%     -    0s
H    0     0                    790312.00000 19882.9653  97.5%     -    0s
H    0     0                    790296.00000 19882.9653  97.5%     -    0s
H    0     0                    737739.00000 19882.9653  97.3%     -    0s
     0     0 19934.8789    0  353 737739.000 19934.8789  97.3%     -    0s
     0     0 19940.5769    0  348 737739.000 19940.5769  97.3%     -    0s
     0     0 19944.8221    0  356 737739.000 19944.8221  97.3%     -    0s
     0     0 19944.9404    0  356 737739.000 19944.9404  97.3%     -    0s
     0     0 20742.9334    0  376 737739.000 20742.9334  97.2%     -    1s
H    0     0                    693858.00000 20742.9334  97.0%     -    1s
     0     0 20747.9214    0  397 693858.000 20747.9214  97.0%     -    1s
     0     0 20748.6487    0  387 693858.000 20748.6487  97.0%     -    1s
     0     0 21728.2483    0  377 693858.000 21728.2483  96.9%     -    1s
H    0     0                    693842.00000 21728.2483  96.9%     -    1s
H    0     0                    547773.00000 21728.2483  96.0%     -    1s
     0     0 21743.9888    0  370 547773.000 21743.9888  96.0%     -    1s
     0     0 21747.7344    0  387 547773.000 21747.7344  96.0%     -    1s
     0     0 21748.2523    0  389 547773.000 21748.2523  96.0%     -    1s
     0     0 22941.9228    0  376 547773.000 22941.9228  95.8%     -    1s
H    0     0                    547245.00000 22941.9228  95.8%     -    1s
H    0     0                    428460.00000 22953.7433  94.6%     -    1s
     0     0 22953.7433    0  371 428460.000 22953.7433  94.6%     -    1s
     0     0 22954.0794    0  374 428460.000 22954.0794  94.6%     -    1s
H    0     0                    280959.00000 25543.3068  90.9%     -    2s
     0     0 25544.1865    0  355 280959.000 25544.1865  90.9%     -    2s
H    0     0                    278105.00000 25544.1865  90.8%     -    2s
     0     0 25600.9825    0  371 278105.000 25600.9825  90.8%     -    2s
     0     0 25602.5000    0  377 278105.000 25602.5000  90.8%     -    2s
     0     0 27300.8126    0  374 278105.000 27300.8126  90.2%     -    2s
H    0     0                    277825.00000 27300.8126  90.2%     -    2s
H    0     0                    275411.00000 27300.8126  90.1%     -    2s
     0     0 27615.8155    0  348 275411.000 27615.8155  90.0%     -    2s
H    0     0                    240850.00000 27884.0671  88.4%     -    2s
     0     0 27884.0671    0  329 240850.000 27884.0671  88.4%     -    2s
     0     0 27934.8662    0  328 240850.000 27934.8662  88.4%     -    2s
     0     0 27935.3544    0  336 240850.000 27935.3544  88.4%     -    2s
     0     0 34904.7444    0  356 240850.000 34904.7444  85.5%     -    2s
H    0     0                    240770.00000 34904.7444  85.5%     -    2s
H    0     0                    240745.00000 34904.7444  85.5%     -    2s
     0     0 34961.8878    0  359 240745.000 34961.8878  85.5%     -    2s
H    0     0                    209939.00000 34964.0664  83.3%     -    2s
     0     0 34965.6193    0  357 209939.000 34965.6193  83.3%     -    3s
H    0     0                    209859.00000 38456.0042  81.7%     -    3s
     0     0 38456.0042    0  336 209859.000 38456.0042  81.7%     -    3s
H    0     0                    180440.00000 38456.0042  78.7%     -    3s
H    0     0                    179595.00000 38561.3526  78.5%     -    3s
     0     0 38561.3526    0  357 179595.000 38561.3526  78.5%     -    3s
     0     0 38566.9070    0  328 179595.000 38566.9070  78.5%     -    3s
H    0     0                    167311.00000 39638.4204  76.3%     -    3s
     0     0 39638.4204    0  362 167311.000 39638.4204  76.3%     -    3s
H    0     0                    167307.00000 39638.4204  76.3%     -    3s
H    0     0                    167287.00000 39638.4204  76.3%     -    3s
     0     0 40076.7531    0  377 167287.000 40076.7531  76.0%     -    3s
     0     0 40083.6882    0  370 167287.000 40083.6882  76.0%     -    3s
H    0     0                    167127.00000 45888.4312  72.5%     -    3s
     0     0 45888.4312    0  378 167127.000 45888.4312  72.5%     -    3s
H    0     0                    167042.00000 45888.4312  72.5%     -    3s
     0     0 46007.9341    0  374 167042.000 46007.9341  72.5%     -    4s
H    0     0                    147578.00000 46024.3930  68.8%     -    4s
     0     0 46024.3930    0  394 147578.000 46024.3930  68.8%     -    4s
     0     0 48289.7585    0  364 147578.000 48289.7585  67.3%     -    4s
     0     0 48289.7585    0  245 147578.000 48289.7585  67.3%     -    4s
H    0     0                    147513.00000 48289.7585  67.3%     -    4s
H    0     0                    142223.00000 48289.7585  66.0%     -    4s
     0     0 48289.7585    0  328 142223.000 48289.7585  66.0%     -    4s
H    0     0                    141898.00000 48289.7585  66.0%     -    4s
     0     0 48289.7585    0  340 141898.000 48289.7585  66.0%     -    4s
     0     0 48289.7585    0  334 141898.000 48289.7585  66.0%     -    5s
     0     0 48610.9490    0  348 141898.000 48610.9490  65.7%     -    5s
     0     0 48820.6187    0  367 141898.000 48820.6187  65.6%     -    5s
     0     0 48820.9110    0  371 141898.000 48820.9110  65.6%     -    5s
     0     0 52400.8131    0  347 141898.000 52400.8131  63.1%     -    5s
H    0     0                    141893.00000 52400.8131  63.1%     -    5s
H    0     0                    141888.00000 52400.8131  63.1%     -    5s
H    0     0                    141878.00000 52400.8131  63.1%     -    5s
     0     0 52435.4102    0  328 141878.000 52435.4102  63.0%     -    5s
     0     0 52435.7255    0  336 141878.000 52435.7255  63.0%     -    5s
     0     0 59062.7213    0  360 141878.000 59062.7213  58.4%     -    5s
H    0     0                    140704.00000 59062.7213  58.0%     -    5s
     0     0 59078.0782    0  337 140704.000 59078.0782  58.0%     -    5s
     0     0 59392.1065    0  327 140704.000 59392.1065  57.8%     -    5s
     0     0 59392.1065    0  314 140704.000 59392.1065  57.8%     -    5s
H    0     0                    75609.000000 59392.1065  21.4%     -    6s
H    0     0                    74629.000000 59395.6415  20.4%     -    6s
     0     0 59395.6415    0  249 74629.0000 59395.6415  20.4%     -    6s
     0     0 59395.6415    0  304 74629.0000 59395.6415  20.4%     -    6s
H    0     0                    74550.000000 59395.6415  20.3%     -    6s
     0     0 59395.6415    0  332 74550.0000 59395.6415  20.3%     -    6s
H    0     0                    74440.000000 59395.6415  20.2%     -    6s
     0     0 59395.6415    0  304 74440.0000 59395.6415  20.2%     -    6s
     0     0 59395.6415    0  326 74440.0000 59395.6415  20.2%     -    6s
     0     0 59395.9549    0  275 74440.0000 59395.9549  20.2%     -    6s
     0     0 59395.9549    0  277 74440.0000 59395.9549  20.2%     -    6s
H    0     0                    74414.000000 59395.9549  20.2%     -    6s
     0     0 59655.8518    0  276 74414.0000 59655.8518  19.8%     -    6s
H    0     0                    72369.000000 59655.8518  17.6%     -    6s
     0     0 59657.8653    0  287 72369.0000 59657.8653  17.6%     -    6s
     0     0 59672.4326    0  291 72369.0000 59672.4326  17.5%     -    6s
     0     0 59672.4326    0  271 72369.0000 59672.4326  17.5%     -    6s
H    0     0                    65215.000000 59672.4326  8.50%     -    6s
H    0     0                    60760.000000 59674.4354  1.79%     -    6s
     0     0 59674.4354    0  215 60760.0000 59674.4354  1.79%     -    6s
H    0     0                    60680.000000 59674.4354  1.66%     -    6s
H    0     0                    60665.000000 59674.4354  1.63%     -    6s
H    0     0                    60520.000000 59674.4354  1.40%     -    7s
     0     0 59674.4354    0  238 60520.0000 59674.4354  1.40%     -    7s
H    0     0                    60200.000000 59674.4354  0.87%     -    7s
     0     0 59674.4354    0  271 60200.0000 59674.4354  0.87%     -    7s
     0     0 59676.4163    0  276 60200.0000 59676.4163  0.87%     -    7s
     0     0 59680.4656    0  277 60200.0000 59680.4656  0.86%     -    7s
     0     0 59681.4389    0  264 60200.0000 59681.4389  0.86%     -    7s
     0     0 59714.9650    0  308 60200.0000 59714.9650  0.81%     -    7s
H    0     0                    60185.000000 59714.9650  0.78%     -    7s
     0     0 59715.2940    0  303 60185.0000 59715.2940  0.78%     -    7s
     0     0 59742.2690    0  284 60185.0000 59742.2690  0.74%     -    7s
     0     0 59742.2690    0  282 60185.0000 59742.2690  0.74%     -    7s
H    0     0                    60105.000000 59743.4882  0.60%     -    7s
     0     0 59743.4882    0  200 60105.0000 59743.4882  0.60%     -    7s
     0     0 59743.4882    0  224 60105.0000 59743.4882  0.60%     -    7s
H    0     0                    60025.000000 59743.4882  0.47%     -    7s
     0     0 59743.4882    0  273 60025.0000 59743.4882  0.47%     -    7s
     0     0 59743.4882    0  275 60025.0000 59743.4882  0.47%     -    7s
     0     0 59743.4882    0  256 60025.0000 59743.4882  0.47%     -    7s
     0     0 59743.5988    0  279 60025.0000 59743.5988  0.47%     -    7s
     0     0 59743.6175    0  276 60025.0000 59743.6175  0.47%     -    7s
     0     0 59754.0507    0  242 60025.0000 59754.0507  0.45%     -    7s
     0     0 59754.2287    0  241 60025.0000 59754.2287  0.45%     -    7s
     0     0 59759.1826    0  230 60025.0000 59759.1826  0.44%     -    7s
     0     0 59761.2289    0  237 60025.0000 59761.2289  0.44%     -    7s
     0     0 59761.4309    0  240 60025.0000 59761.4309  0.44%     -    7s
     0     0 59761.5178    0  260 60025.0000 59761.5178  0.44%     -    7s
     0     0 59761.5178    0  244 60025.0000 59761.5178  0.44%     -    7s
     0     2 59763.3905    0  240 60025.0000 59763.3905  0.44%     -    7s
H   32    40                    59974.000000 59793.6095  0.30%   271    8s
H   33    40                    59925.000000 59793.6095  0.22%   267    8s
H   37    40                    59894.000000 59793.6095  0.17%   256    8s
H   79    57                    59890.000000 59793.6095  0.16%   163    8s
H   80    57                    59874.000000 59793.6095  0.13%   163    8s
H  140    71                    59862.000000 59793.6095  0.11%   120    8s
*  270   110              33    59858.000000 59804.1751  0.09%  92.3    8s
*  308   122              20    59857.000000 59804.1751  0.09%  84.8    8s
*  456   110              25    59852.000000 59827.8709  0.04%  71.4    8s

Cutting planes:
  Gomory: 8
  Cover: 26
  Clique: 42
  MIR: 44
  StrongCG: 8
  GUB cover: 91
  Zero half: 30
  RLT: 12
  Relax-and-lift: 1

Explored 593 nodes (112066 simplex iterations) in 8.40 seconds (12.36 work units)
Thread count was 8 (of 8 available processors)

Solution count 10: 59852 59857 59858 ... 60025

Optimal solution found (tolerance 1.00e-04)
Best objective 5.985200000000e+04, best bound 5.985200000000e+04, gap 0.0000%
